python/teste/teste20
3 3
1 3 0 3 2 8
0 9 1 6 2 5
0 3 1 10 2 4
